Minimize

1535379.0 x_0 + 647241.0 x_1 + 230466.0 x_2 + 363326.0 x_3 + 887415.0 x_4 + 41141.0 x_5 + 257207.0 x_6 + 529678.0 x_7 + 217581.0 x_8 + 263739.0 x_9


Subject To

a0: x_0 + x_1 >= 1
a1: x_0 + x_2 >= 1
a2: x_0 + x_3 >= 1
a3: x_0 + x_5 >= 1
a4: x_1 + x_2 >= 1
a5: x_1 + x_9 >= 1
a6: x_3 + x_5 >= 1
a7: x_3 + x_7 >= 1
a8: x_3 + x_8 >= 1
a9: x_4 + x_5 >= 1
a10: x_4 + x_6 >= 1
a11: x_4 + x_9 >= 1
a12: x_5 + x_6 >= 1
a13: x_5 + x_7 >= 1
a14: x_6 + x_7 >= 1
a15: x_7 + x_8 >= 1




Binary

x_0 x_1 x_2 x_3 x_4 x_5 x_6 x_7 x_8 x_9

 
End
